certificates/rado_a13_c284_N27.cnf
c Rad2 upper bound instance: x1 + 13*x2 - x3 = 284, interval [1,27]
p cnf 27 112
1 3 22 0
-1 -3 -22 0
1 16 23 0
-1 -16 -23 0
2 4 22 0
-2 -4 -22 0
2 17 23 0
-2 -17 -23 0
3 5 22 0
-3 -5 -22 0
3 18 23 0
-3 -18 -23 0
4 6 22 0
-4 -6 -22 0
4 19 23 0
-4 -19 -23 0
5 7 22 0
-5 -7 -22 0
5 20 23 0
-5 -20 -23 0
6 8 22 0
-6 -8 -22 0
6 21 23 0
-6 -21 -23 0
7 9 22 0
-7 -9 -22 0
7 22 23 0
-7 -22 -23 0
8 10 22 0
-8 -10 -22 0
8 23 0
-8 -23 0
9 11 22 0
-9 -11 -22 0
9 23 24 0
-9 -23 -24 0
10 12 22 0
-10 -12 -22 0
10 23 25 0
-10 -23 -25 0
11 13 22 0
-11 -13 -22 0
11 23 26 0
-11 -23 -26 0
1 12 21 0
-1 -12 -21 0
12 14 22 0
-12 -14 -22 0
12 23 27 0
-12 -23 -27 0
2 13 21 0
-2 -13 -21 0
13 15 22 0
-13 -15 -22 0
3 14 21 0
-3 -14 -21 0
14 16 22 0
-14 -16 -22 0
4 15 21 0
-4 -15 -21 0
15 17 22 0
-15 -17 -22 0
5 16 21 0
-5 -16 -21 0
16 18 22 0
-16 -18 -22 0
6 17 21 0
-6 -17 -21 0
17 19 22 0
-17 -19 -22 0
7 18 21 0
-7 -18 -21 0
18 20 22 0
-18 -20 -22 0
8 19 21 0
-8 -19 -21 0
19 21 22 0
-19 -21 -22 0
9 20 21 0
-9 -20 -21 0
20 22 0
-20 -22 0
10 21 0
-10 -21 0
21 22 23 0
-21 -22 -23 0
11 21 22 0
-11 -21 -22 0
22 24 0
-22 -24 0
12 21 23 0
-12 -21 -23 0
22 23 25 0
-22 -23 -25 0
13 21 24 0
-13 -21 -24 0
22 24 26 0
-22 -24 -26 0
1 20 25 0
-1 -20 -25 0
14 21 25 0
-14 -21 -25 0
22 25 27 0
-22 -25 -27 0
2 20 26 0
-2 -20 -26 0
15 21 26 0
-15 -21 -26 0
3 20 27 0
-3 -20 -27 0
16 21 27 0
-16 -21 -27 0
