certificates/rado_a13_c284_N27.drat
-25 -27 0
d -25 -22 -27 0
22 -27 0
-23 -22 0
-27 0
-22 0
20 0
24 0
25 0
-1 0
3 0
23 0
-8 0
-9 0
-10 0
-18 0
-5 0
6 0
0
